p edge 73 1110
e 1 2
e 1 5
e 1 12
e 1 14
e 1 16
e 1 17
e 1 23
e 1 25
e 1 27
e 1 31
e 1 34
e 1 36
e 1 44
e 1 47
e 1 49
e 1 50
e 1 51
e 1 54
e 1 56
e 1 59
e 1 62
e 1 64
e 1 68
e 1 71
e 1 72
e 2 3
e 2 10
e 2 12
e 2 13
e 2 16
e 2 21
e 2 27
e 2 28
e 2 29
e 2 30
e 2 32
e 2 36
e 2 37
e 2 39
e 2 44
e 2 46
e 2 50
e 2 57
e 2 60
e 2 61
e 2 63
e 2 72
e 2 73
e 3 5
e 3 7
e 3 8
e 3 10
e 3 11
e 3 16
e 3 17
e 3 20
e 3 21
e 3 23
e 3 24
e 3 25
e 3 27
e 3 29
e 3 34
e 3 38
e 3 41
e 3 42
e 3 43
e 3 44
e 3 46
e 3 47
e 3 59
e 3 65
e 3 68
e 3 69
e 4 5
e 4 7
e 4 9
e 4 14
e 4 15
e 4 18
e 4 20
e 4 24
e 4 31
e 4 37
e 4 38
e 4 44
e 4 45
e 4 46
e 4 48
e 4 49
e 4 52
e 4 55
e 4 56
e 4 59
e 4 60
e 4 68
e 4 70
e 4 71
e 4 72
e 4 73
e 5 6
e 5 7
e 5 12
e 5 14
e 5 19
e 5 24
e 5 26
e 5 30
e 5 31
e 5 32
e 5 34
e 5 35
e 5 37
e 5 38
e 5 41
e 5 42
e 5 44
e 5 49
e 5 50
e 5 51
e 5 52
e 5 54
e 5 57
e 5 59
e 5 60
e 5 61
e 5 63
e 5 64
e 5 65
e 5 67
e 5 69
e 5 70
e 5 73
e 6 9
e 6 10
e 6 14
e 6 17
e 6 19
e 6 20
e 6 21
e 6 23
e 6 26
e 6 29
e 6 30
e 6 34
e 6 35
e 6 36
e 6 38
e 6 40
e 6 46
e 6 48
e 6 50
e 6 56
e 6 57
e 6 58
e 6 59
e 6 63
e 6 65
e 6 67
e 6 68
e 6 69
e 6 71
e 7 9
e 7 10
e 7 11
e 7 16
e 7 22
e 7 23
e 7 25
e 7 26
e 7 27
e 7 31
e 7 32
e 7 33
e 7 34
e 7 39
e 7 50
e 7 51
e 7 53
e 7 56
e 7 59
e 7 60
e 7 61
e 7 63
e 7 64
e 7 66
e 7 71
e 7 72
e 8 10
e 8 11
e 8 19
e 8 26
e 8 27
e 8 28
e 8 29
e 8 32
e 8 33
e 8 34
e 8 35
e 8 36
e 8 38
e 8 43
e 8 45
e 8 51
e 8 52
e 8 53
e 8 54
e 8 55
e 8 59
e 8 64
e 8 66
e 8 67
e 8 68
e 8 69
e 8 70
e 8 71
e 9 11
e 9 12
e 9 13
e 9 14
e 9 15
e 9 19
e 9 22
e 9 26
e 9 27
e 9 28
e 9 29
e 9 31
e 9 33
e 9 34
e 9 35
e 9 40
e 9 43
e 9 45
e 9 50
e 9 51
e 9 54
e 9 55
e 9 57
e 9 62
e 9 64
e 9 66
e 9 68
e 9 70
e 9 73
e 10 11
e 10 15
e 10 19
e 10 25
e 10 29
e 10 32
e 10 33
e 10 36
e 10 38
e 10 40
e 10 41
e 10 42
e 10 43
e 10 45
e 10 47
e 10 48
e 10 49
e 10 50
e 10 52
e 10 61
e 10 63
e 10 64
e 10 66
e 10 73
e 11 15
e 11 19
e 11 20
e 11 21
e 11 23
e 11 25
e 11 27
e 11 30
e 11 32
e 11 35
e 11 36
e 11 38
e 11 40
e 11 41
e 11 44
e 11 45
e 11 50
e 11 51
e 11 61
e 11 62
e 11 65
e 11 67
e 11 68
e 11 69
e 11 70
e 11 71
e 11 73
e 12 16
e 12 19
e 12 20
e 12 21
e 12 23
e 12 26
e 12 28
e 12 29
e 12 37
e 12 39
e 12 43
e 12 44
e 12 45
e 12 46
e 12 49
e 12 51
e 12 55
e 12 57
e 12 58
e 12 59
e 12 62
e 12 65
e 12 67
e 12 70
e 12 73
e 13 14
e 13 16
e 13 18
e 13 19
e 13 21
e 13 24
e 13 26
e 13 29
e 13 33
e 13 34
e 13 37
e 13 41
e 13 42
e 13 48
e 13 51
e 13 52
e 13 53
e 13 55
e 13 56
e 13 57
e 13 58
e 13 61
e 13 65
e 13 66
e 13 67
e 13 68
e 13 69
e 13 70
e 13 71
e 13 72
e 14 16
e 14 17
e 14 21
e 14 23
e 14 24
e 14 28
e 14 30
e 14 32
e 14 39
e 14 40
e 14 43
e 14 44
e 14 45
e 14 46
e 14 53
e 14 60
e 14 63
e 14 64
e 14 67
e 14 68
e 14 70
e 14 71
e 15 22
e 15 25
e 15 26
e 15 28
e 15 31
e 15 34
e 15 36
e 15 37
e 15 38
e 15 39
e 15 40
e 15 41
e 15 44
e 15 45
e 15 46
e 15 48
e 15 49
e 15 50
e 15 52
e 15 55
e 15 56
e 15 62
e 15 63
e 15 66
e 15 68
e 15 73
e 16 19
e 16 23
e 16 25
e 16 27
e 16 28
e 16 29
e 16 39
e 16 42
e 16 43
e 16 47
e 16 52
e 16 60
e 16 63
e 16 67
e 16 70
e 16 71
e 17 20
e 17 23
e 17 26
e 17 27
e 17 30
e 17 34
e 17 35
e 17 36
e 17 38
e 17 39
e 17 40
e 17 41
e 17 42
e 17 46
e 17 48
e 17 49
e 17 54
e 17 55
e 17 56
e 17 58
e 17 59
e 17 60
e 17 61
e 17 63
e 17 65
e 17 66
e 17 71
e 17 72
e 18 19
e 18 21
e 18 22
e 18 25
e 18 26
e 18 27
e 18 32
e 18 34
e 18 35
e 18 36
e 18 40
e 18 43
e 18 45
e 18 46
e 18 47
e 18 49
e 18 50
e 18 51
e 18 54
e 18 56
e 18 58
e 18 59
e 18 60
e 18 64
e 18 65
e 18 69
e 18 70
e 18 73
e 19 21
e 19 22
e 19 23
e 19 26
e 19 28
e 19 29
e 19 31
e 19 32
e 19 34
e 19 35
e 19 36
e 19 39
e 19 43
e 19 45
e 19 46
e 19 53
e 19 57
e 19 58
e 19 62
e 19 64
e 19 65
e 19 69
e 19 72
e 19 73
e 20 23
e 20 26
e 20 31
e 20 32
e 20 37
e 20 39
e 20 42
e 20 43
e 20 46
e 20 48
e 20 49
e 20 50
e 20 52
e 20 54
e 20 57
e 20 58
e 20 59
e 20 61
e 20 62
e 20 65
e 20 67
e 20 70
e 20 71
e 21 22
e 21 23
e 21 24
e 21 31
e 21 33
e 21 36
e 21 38
e 21 40
e 21 41
e 21 43
e 21 44
e 21 51
e 21 52
e 21 53
e 21 55
e 21 61
e 21 62
e 21 66
e 21 67
e 21 69
e 22 33
e 22 36
e 22 37
e 22 38
e 22 41
e 22 43
e 22 45
e 22 49
e 22 50
e 22 51
e 22 52
e 22 55
e 22 56
e 22 57
e 22 58
e 22 66
e 22 68
e 22 69
e 22 73
e 23 25
e 23 29
e 23 31
e 23 34
e 23 35
e 23 36
e 23 39
e 23 40
e 23 42
e 23 45
e 23 47
e 23 48
e 23 50
e 23 52
e 23 53
e 23 54
e 23 57
e 23 59
e 23 62
e 23 63
e 23 66
e 23 70
e 23 72
e 23 73
e 24 26
e 24 27
e 24 28
e 24 30
e 24 32
e 24 39
e 24 40
e 24 42
e 24 43
e 24 44
e 24 45
e 24 51
e 24 52
e 24 62
e 24 65
e 24 66
e 24 67
e 24 70
e 24 71
e 24 72
e 24 73
e 25 27
e 25 29
e 25 30
e 25 31
e 25 32
e 25 33
e 25 34
e 25 35
e 25 36
e 25 38
e 25 43
e 25 48
e 25 49
e 25 50
e 25 56
e 25 57
e 25 60
e 25 61
e 25 63
e 25 66
e 25 71
e 25 72
e 26 27
e 26 29
e 26 34
e 26 37
e 26 38
e 26 39
e 26 41
e 26 45
e 26 48
e 26 51
e 26 55
e 26 56
e 26 59
e 26 60
e 26 62
e 26 64
e 26 67
e 26 68
e 26 69
e 26 73
e 27 28
e 27 29
e 27 30
e 27 31
e 27 36
e 27 37
e 27 41
e 27 45
e 27 46
e 27 47
e 27 49
e 27 50
e 27 54
e 27 58
e 27 59
e 27 61
e 27 63
e 27 66
e 27 67
e 27 70
e 27 71
e 28 29
e 28 30
e 28 33
e 28 34
e 28 37
e 28 39
e 28 44
e 28 45
e 28 49
e 28 54
e 28 55
e 28 59
e 28 62
e 28 67
e 28 69
e 29 30
e 29 33
e 29 37
e 29 39
e 29 41
e 29 43
e 29 46
e 29 48
e 29 49
e 29 51
e 29 60
e 29 63
e 29 64
e 29 65
e 29 73
e 30 32
e 30 33
e 30 36
e 30 37
e 30 38
e 30 39
e 30 41
e 30 42
e 30 43
e 30 47
e 30 48
e 30 50
e 30 51
e 30 53
e 30 57
e 30 67
e 30 71
e 30 73
e 31 32
e 31 33
e 31 35
e 31 36
e 31 37
e 31 40
e 31 41
e 31 42
e 31 44
e 31 46
e 31 49
e 31 54
e 31 56
e 31 60
e 31 62
e 31 65
e 31 68
e 31 69
e 31 70
e 32 33
e 32 34
e 32 36
e 32 38
e 32 43
e 32 44
e 32 45
e 32 47
e 32 50
e 32 52
e 32 53
e 32 54
e 32 60
e 32 64
e 32 66
e 32 67
e 32 68
e 32 70
e 32 71
e 32 72
e 33 34
e 33 37
e 33 38
e 33 41
e 33 44
e 33 47
e 33 49
e 33 53
e 33 55
e 33 56
e 33 57
e 33 58
e 33 60
e 33 61
e 33 64
e 33 66
e 33 67
e 33 68
e 33 69
e 34 35
e 34 36
e 34 38
e 34 41
e 34 44
e 34 45
e 34 46
e 34 47
e 34 50
e 34 54
e 34 55
e 34 56
e 34 60
e 34 61
e 34 62
e 34 65
e 34 66
e 34 68
e 34 70
e 34 72
e 35 36
e 35 37
e 35 38
e 35 42
e 35 45
e 35 49
e 35 51
e 35 54
e 35 57
e 35 61
e 35 63
e 35 66
e 35 68
e 35 70
e 36 38
e 36 39
e 36 40
e 36 41
e 36 46
e 36 47
e 36 48
e 36 52
e 36 56
e 36 57
e 36 58
e 36 61
e 36 62
e 36 66
e 36 72
e 37 42
e 37 43
e 37 46
e 37 48
e 37 52
e 37 53
e 37 55
e 37 57
e 37 60
e 37 61
e 37 62
e 37 63
e 37 65
e 37 66
e 37 68
e 37 70
e 38 40
e 38 45
e 38 48
e 38 49
e 38 50
e 38 53
e 38 59
e 38 62
e 38 63
e 38 66
e 38 68
e 38 71
e 38 72
e 39 42
e 39 45
e 39 46
e 39 47
e 39 48
e 39 49
e 39 52
e 39 53
e 39 55
e 39 61
e 39 63
e 39 64
e 39 65
e 39 67
e 39 68
e 40 41
e 40 49
e 40 51
e 40 53
e 40 55
e 40 56
e 40 58
e 40 62
e 40 63
e 40 64
e 40 69
e 40 71
e 41 47
e 41 48
e 41 49
e 41 50
e 41 56
e 41 57
e 41 58
e 41 61
e 41 62
e 41 63
e 41 68
e 41 70
e 41 71
e 41 72
e 42 43
e 42 44
e 42 45
e 42 47
e 42 49
e 42 54
e 42 57
e 42 59
e 42 60
e 42 61
e 42 62
e 42 64
e 42 66
e 42 67
e 42 68
e 42 69
e 42 71
e 42 72
e 43 48
e 43 53
e 43 54
e 43 68
e 43 69
e 43 70
e 43 71
e 44 46
e 44 48
e 44 49
e 44 50
e 44 51
e 44 53
e 44 54
e 44 56
e 44 58
e 44 59
e 44 62
e 44 64
e 44 66
e 44 71
e 45 48
e 45 49
e 45 50
e 45 51
e 45 53
e 45 55
e 45 59
e 45 62
e 45 63
e 45 66
e 45 67
e 45 69
e 45 72
e 45 73
e 46 50
e 46 53
e 46 54
e 46 55
e 46 58
e 46 59
e 46 60
e 46 61
e 46 62
e 46 63
e 46 67
e 46 69
e 46 70
e 46 71
e 46 72
e 46 73
e 47 51
e 47 52
e 47 54
e 47 55
e 47 56
e 47 62
e 47 65
e 47 68
e 47 69
e 47 70
e 47 71
e 48 49
e 48 52
e 48 53
e 48 54
e 48 57
e 48 60
e 48 62
e 48 66
e 48 73
e 49 51
e 49 56
e 49 57
e 49 59
e 49 63
e 49 65
e 49 68
e 49 69
e 50 53
e 50 57
e 50 58
e 50 59
e 50 61
e 50 62
e 50 64
e 50 66
e 50 67
e 50 68
e 50 69
e 50 72
e 50 73
e 51 52
e 51 56
e 51 57
e 51 60
e 51 62
e 51 63
e 51 64
e 51 66
e 51 67
e 51 68
e 51 69
e 51 70
e 51 73
e 52 56
e 52 59
e 52 60
e 52 64
e 52 68
e 52 71
e 52 73
e 53 56
e 53 59
e 53 61
e 53 62
e 53 67
e 53 72
e 54 55
e 54 56
e 54 61
e 54 64
e 54 65
e 54 67
e 54 68
e 54 69
e 54 73
e 55 58
e 55 61
e 55 65
e 55 66
e 55 67
e 55 68
e 56 57
e 56 58
e 56 61
e 56 62
e 56 66
e 56 68
e 56 69
e 56 70
e 56 71
e 56 72
e 56 73
e 57 59
e 57 65
e 57 67
e 57 68
e 57 69
e 57 70
e 57 72
e 58 59
e 58 62
e 58 63
e 58 64
e 58 65
e 58 67
e 58 69
e 58 73
e 59 61
e 59 63
e 59 64
e 59 68
e 59 69
e 59 71
e 60 61
e 60 62
e 60 65
e 60 66
e 60 68
e 60 73
e 61 62
e 61 63
e 61 68
e 62 64
e 62 67
e 63 64
e 63 66
e 63 70
e 63 71
e 64 66
e 64 67
e 64 68
e 64 69
e 64 70
e 64 71
e 65 66
e 65 70
e 65 71
e 65 72
e 65 73
e 66 67
e 66 70
e 67 68
e 67 72
e 67 73
e 68 69
e 68 71
e 68 72
e 69 70
e 69 73
e 70 73
